%%%mzn-stat: initTime=0.025414931
%%%mzn-stat: objective=143
%%%mzn-stat: nodes=1350881
%%%mzn-stat: restarts=916
%%%mzn-stat: peakDepth=952
%%%mzn-stat: solveTime=1149.36687501
%%%mzn-stat: variables=1793
%%%mzn-stat: propagators=1442
%%%mzn-stat: failures=824846
%%%mzn-stat: propagations=30026798
%%%mzn-stat: nogoods=824846
%%%mzn-stat: AverageConflictSize=56.1005921105273
%%%mzn-stat: NumUnitNogoodsLearned=142
%%%mzn-stat: AverageLearnedNogoodLength=73.12564042257586
%%%mzn-stat: AverageBacktrackAmount=0
%%%mzn-stat: AverageLbd=35.81305116348991
%%%mzn-stat-end
maxleg = 143;
succ = array1d(1..150,[64, 142, 94, 58, 3, 110, 121, 55, 18, 24, 77, 119, 78, 60, 106, 25, 23, 129, 73, 63, 144, 107, 145, 9, 52, 148, 131, 30, 108, 13, 65, 102, 130, 28, 100, 132, 84, 103, 21, 133, 2, 35, 6, 16, 4, 34, 72, 147, 126, 56, 92, 99, 113, 57, 143, 37, 47, 70, 75, 96, 90, 81, 41, 45, 118, 137, 59, 66, 115, 111, 54, 109, 33, 44, 19, 125, 146, 117, 1, 36, 116, 139, 140, 49, 17, 5, 141, 149, 136, 122, 97, 124, 89, 38, 26, 91, 128, 15, 76, 61, 50, 62, 67, 134, 53, 86, 27, 68, 8, 10, 32, 29, 48, 39, 87, 127, 12, 46, 51, 93, 120, 31, 105, 150, 95, 112, 20, 135, 114, 14, 42, 74, 7, 40, 82, 83, 80, 98, 88, 79, 43, 11, 85, 71, 104, 22, 101, 69, 123, 138]);
% time elapsed: 1149.74 s
----------
==========
% time elapsed: 1149.74 s
%%%mzn-stat: initTime=0.025414931
%%%mzn-stat: objective=143
%%%mzn-stat: nodes=1350881
%%%mzn-stat: restarts=916
%%%mzn-stat: peakDepth=952
%%%mzn-stat: solveTime=1149.366882345
%%%mzn-stat: variables=1793
%%%mzn-stat: propagators=1442
%%%mzn-stat: failures=824846
%%%mzn-stat: propagations=30026798
%%%mzn-stat: nogoods=824846
%%%mzn-stat: AverageConflictSize=56.1005921105273
%%%mzn-stat: NumUnitNogoodsLearned=142
%%%mzn-stat: AverageLearnedNogoodLength=73.12564042257586
%%%mzn-stat: AverageBacktrackAmount=0
%%%mzn-stat: AverageLbd=35.81305116348991
%%%mzn-stat-end
